Route #1: 3 10 25 44 18 35
Route #2: 9 17 28 19 8 33 12 11
Route #3: 32 37 2 30 4
Route #4: 36 22 7 39 5
Route #5: 23 45 6 13 26 43 14 38
Route #6: 21 29 31 34 40 27 20 41
Route #7: 15 1 24 16 42
cost 1030.526611328125